FourierSAT_Github_AIJ/res/fs_1core/p_hat500-2.clq.cnf.txt
o 188
o 183
o 182
